certificates/rado_a6_c92_N16.cnf
c Rad2 upper bound instance: x1 + 6*x2 - x3 = 92, interval [1,16]
p cnf 16 72
1 5 16 0
-1 -5 -16 0
2 6 16 0
-2 -6 -16 0
1 3 15 0
-1 -3 -15 0
3 7 16 0
-3 -7 -16 0
2 4 15 0
-2 -4 -15 0
4 8 16 0
-4 -8 -16 0
3 5 15 0
-3 -5 -15 0
5 9 16 0
-5 -9 -16 0
4 6 15 0
-4 -6 -15 0
6 10 16 0
-6 -10 -16 0
5 7 15 0
-5 -7 -15 0
7 11 16 0
-7 -11 -16 0
6 8 15 0
-6 -8 -15 0
8 12 16 0
-8 -12 -16 0
1 9 14 0
-1 -9 -14 0
7 9 15 0
-7 -9 -15 0
9 13 16 0
-9 -13 -16 0
2 10 14 0
-2 -10 -14 0
8 10 15 0
-8 -10 -15 0
10 14 16 0
-10 -14 -16 0
3 11 14 0
-3 -11 -14 0
9 11 15 0
-9 -11 -15 0
11 15 16 0
-11 -15 -16 0
4 12 14 0
-4 -12 -14 0
10 12 15 0
-10 -12 -15 0
12 16 0
-12 -16 0
5 13 14 0
-5 -13 -14 0
11 13 15 0
-11 -13 -15 0
6 14 0
-6 -14 0
12 14 15 0
-12 -14 -15 0
1 13 15 0
-1 -13 -15 0
7 14 15 0
-7 -14 -15 0
13 15 0
-13 -15 0
2 13 16 0
-2 -13 -16 0
8 14 16 0
-8 -14 -16 0
14 15 16 0
-14 -15 -16 0
