certificates/rado_a6_c92_N16.drat
-15 -16 0
-16 0
12 0
15 0
-13 0
-10 0
-14 0
2 0
9 0
6 0
0
